networks/zoo_106_2756/zoo_106_2756-lower.txt
Number of groups: 79
Flow 7: {7 8 0} 
Flow 70: {9 19 0} {19 72 1} 
Flow 162: {4 3 0} {3 7 1} {7 60 2} 
Flow 176: {20 21 0} {21 74 1} 
Flow 365: {8 7 0} {7 1 1} {1 54 2} 
Flow 398: {8 6 0} {6 35 1} {35 88 2} 
Flow 404: {8 5 0} {5 38 1} {38 40 2} {40 41 3} 
Flow 411: {38 36 0} {36 25 1} {25 47 2} {47 48 3} {48 101 4} 
Flow 452: {24 37 0} 
Flow 477: {10 6 0} {6 9 1} {9 62 2} 
Flow 510: {10 39 0} {39 38 1} {38 43 2} {43 96 3} 
Flow 616: {11 2 0} {2 45 1} {45 98 2} 
Flow 627: {2 1 0} {1 7 1} {7 3 2} {3 56 3} 
Flow 636: {13 11 0} {11 12 1} {12 65 2} 
Flow 697: {14 23 0} {23 21 1} {21 22 2} 
Flow 706: {35 9 0} {9 31 1} {31 84 2} 
Flow 742: {15 35 0} {35 42 1} {42 23 2} {23 14 3} {14 67 4} 
Flow 743: {15 16 0} {16 69 1} 
Flow 803: {16 35 0} {35 38 1} {38 24 2} {24 77 3} 
Flow 837: {6 5 0} {5 58 1} 
Flow 850: {17 18 0} {18 19 1} 
Flow 871: {17 16 0} {16 34 1} {34 40 2} {40 93 3} 
Flow 888: {3 4 0} {4 57 1} 
Flow 892: {6 8 0} 
Flow 924: {18 35 0} {35 40 1} 
Flow 953: {19 18 0} {18 17 1} {17 70 2} 
Flow 967: {25 32 0} {32 85 1} 
Flow 968: {19 35 0} {35 33 1} {33 86 2} 
Flow 974: {19 9 0} {9 5 1} {5 39 2} {39 92 3} 
Flow 1024: {43 36 0} {36 37 1} {37 90 2} 
Flow 1077: {21 20 0} {20 43 1} {43 38 2} {38 91 3} 
Flow 1114: {22 21 0} {21 23 1} {23 76 2} 
Flow 1132: {22 43 0} {43 42 1} {42 41 2} {41 94 3} 
Flow 1179: {23 42 0} {42 36 1} {36 89 2} 
Flow 1223: {5 6 0} {6 28 1} {28 81 2} 
Flow 1310: {26 9 0} {9 6 1} {6 10 2} {10 63 3} 
Flow 1327: {26 29 0} {29 28 1} 
Flow 1367: {27 33 0} {33 16 1} {16 15 2} {15 68 3} 
Flow 1371: {33 35 0} {35 19 1} 
Flow 1410: {28 6 0} {6 59 1} 
Flow 1430: {28 29 0} {29 26 1} {26 79 2} 
Flow 1434: {28 31 0} 
Flow 1454: {1 2 0} {2 50 1} {50 51 2} 
Flow 1464: {29 6 0} 
Flow 1486: {29 31 0} 
Flow 1519: {30 50 0} {50 2 1} {2 11 2} {11 64 3} 
Flow 1588: {31 28 0} 
Flow 1589: {31 29 0} {29 82 1} 
Flow 1593: {31 9 0} {9 35 1} {35 34 2} {34 87 3} 
Flow 1660: {32 47 0} {47 12 1} {12 49 2} {49 102 3} 
Flow 1664: {32 48 0} {48 51 1} {51 50 2} {50 53 3} {53 106 4} 
Flow 1734: {34 35 0} {35 18 1} {18 71 2} 
Flow 1743: {34 16 0} {16 33 1} {33 27 2} {27 80 3} 
Flow 1882: {37 24 0} {24 38 1} {38 39 2} {39 10 3} 
Flow 1894: {37 36 0} {36 43 1} {43 22 2} {22 75 3} 
Flow 1984: {39 5 0} {5 8 1} {8 61 2} 
Flow 2027: {53 52 0} {52 105 1} 
Flow 2087: {40 38 0} {38 5 1} {5 7 2} 
Flow 2093: {12 11 0} {11 13 1} {13 66 2} 
Flow 2095: {41 40 0} {40 35 1} {35 15 2} 
Flow 2096: {40 34 0} 
Flow 2100: {41 42 0} {42 43 1} {43 20 2} {20 73 3} 
Flow 2253: {38 35 0} {35 16 1} {16 17 2} 
Flow 2285: {44 53 0} {53 50 1} {50 103 2} 
Flow 2286: {44 52 0} {52 51 1} {51 104 2} 
Flow 2332: {45 2 0} {2 53 1} {53 44 2} 
Flow 2370: {46 45 0} {45 50 1} 
Flow 2421: {42 35 0} {35 6 1} {6 29 2} 
Flow 2436: {51 52 0} {52 44 1} {44 97 2} 
Flow 2521: {47 25 0} {25 78 1} 
Flow 2526: {49 13 0} {13 50 1} {50 30 2} {30 83 3} 
Flow 2528: {49 12 0} {12 47 1} {47 32 2} 
Flow 2595: {50 45 0} {45 46 1} {46 47 2} {47 100 3} 
Flow 2638: {51 48 0} {48 32 1} {32 25 2} {25 36 3} {36 38 4} 
Flow 2642: {36 42 0} {42 95 1} 
Flow 2654: {52 53 0} {53 2 1} {2 55 2} 
Flow 2678: {7 5 0} {5 9 1} {9 26 2} 
Flow 2698: {48 47 0} {47 46 1} {46 99 2} 
Flow 2753: {50 13 0} {13 49 1} 
Time taken running everything: 14 seconds
