networks/zoo_106_2756/zoo_106_2756-lower.sol
<?xml version = "1.0" encoding="UTF-8" standalone="yes"?>
<CPLEXSolution version="1.2">
 <header
   problemName="networks/zoo_106_2756/zoo_106_2756-lower.lp"
   solutionName="incumbent"
   solutionIndex="-1"
   objectiveValue="73"
   solutionTypeValue="3"
   solutionTypeString="primal"
   solutionStatusValue="101"
   solutionStatusString="integer optimal solution"
   solutionMethodString="mip"
   primalFeasible="1"
   dualFeasible="1"
   MIPNodes="0"
   MIPIterations="16"
   writeLevel="3"/>
 <quality
   epInt="1.0000000000000001e-05"
   epRHS="9.9999999999999995e-07"
   maxIntInfeas="0"
   maxPrimalInfeas="0"
   maxX="1"
   maxSlack="1"/>
 <variables>
  <variable name="Y(53,1)" index="5512" value="1"/>
  <variable name="Y(163,8)" index="17179" value="1"/>
  <variable name="Y(212,4)" index="22369" value="1"/>
  <variable name="Y(217,39)" index="22934" value="1"/>
  <variable name="Y(253,46)" index="26757" value="1"/>
  <variable name="Y(315,3)" index="33286" value="1"/>
  <variable name="Y(371,7)" index="39226" value="1"/>
  <variable name="Y(373,10)" index="39441" value="1"/>
  <variable name="Y(382,9)" index="40394" value="1"/>
  <variable name="Y(456,35)" index="48264" value="1"/>
  <variable name="Y(496,29)" index="52498" value="1"/>
  <variable name="Y(499,25)" index="52812" value="1"/>
  <variable name="Y(588,16)" index="62237" value="1"/>
  <variable name="Y(601,30)" index="63629" value="1"/>
  <variable name="Y(655,32)" index="69355" value="1"/>
  <variable name="Y(697,22)" index="73797" value="1"/>
  <variable name="Y(699,24)" index="74011" value="1"/>
  <variable name="Y(743,15)" index="78666" value="1"/>
  <variable name="Y(746,19)" index="78988" value="1"/>
  <variable name="Y(820,40)" index="86853" value="1"/>
  <variable name="Y(846,14)" index="89583" value="1"/>
  <variable name="Y(850,17)" index="90010" value="1"/>
  <variable name="Y(914,31)" index="96808" value="1"/>
  <variable name="Y(918,35)" index="97236" value="1"/>
  <variable name="Y(953,17)" index="100928" value="1"/>
  <variable name="Y(969,34)" index="102641" value="1"/>
  <variable name="Y(979,44)" index="103711" value="1"/>
  <variable name="Y(1010,23)" index="106976" value="1"/>
  <variable name="Y(1025,38)" index="108581" value="1"/>
  <variable name="Y(1076,37)" index="113986" value="1"/>
  <variable name="Y(1113,21)" index="117892" value="1"/>
  <variable name="Y(1132,41)" index="119926" value="1"/>
  <variable name="Y(1179,36)" index="124903" value="1"/>
  <variable name="Y(1237,42)" index="131057" value="1"/>
  <variable name="Y(1306,6)" index="138335" value="1"/>
  <variable name="Y(1327,29)" index="140584" value="1"/>
  <variable name="Y(1367,15)" index="144810" value="1"/>
  <variable name="Y(1406,2)" index="148931" value="1"/>
  <variable name="Y(1419,35)" index="150342" value="1"/>
  <variable name="Y(1430,26)" index="151499" value="1"/>
  <variable name="Y(1434,28)" index="151925" value="1"/>
  <variable name="Y(1465,9)" index="155192" value="1"/>
  <variable name="Y(1486,29)" index="157438" value="1"/>
  <variable name="Y(1528,20)" index="161881" value="1"/>
  <variable name="Y(1533,25)" index="162416" value="1"/>
  <variable name="Y(1535,27)" index="162630" value="1"/>
  <variable name="Y(1568,5)" index="166106" value="1"/>
  <variable name="Y(1588,31)" index="168252" value="1"/>
  <variable name="Y(1589,31)" index="168358" value="1"/>
  <variable name="Y(1658,47)" index="175688" value="1"/>
  <variable name="Y(1659,48)" index="175795" value="1"/>
  <variable name="Y(1690,9)" index="179042" value="1"/>
  <variable name="Y(1734,18)" index="183715" value="1"/>
  <variable name="Y(1749,33)" index="185320" value="1"/>
  <variable name="Y(1812,45)" index="192010" value="1"/>
  <variable name="Y(1869,50)" index="198057" value="1"/>
  <variable name="Y(1885,13)" index="199716" value="1"/>
  <variable name="Y(1911,40)" index="202499" value="1"/>
  <variable name="Y(2004,28)" index="212345" value="1"/>
  <variable name="Y(2033,5)" index="215396" value="1"/>
  <variable name="Y(2088,6)" index="221227" value="1"/>
  <variable name="Y(2096,16)" index="222085" value="1"/>
  <variable name="Y(2102,43)" index="222748" value="1"/>
  <variable name="Y(2279,43)" index="241510" value="1"/>
  <variable name="Y(2284,49)" index="242046" value="1"/>
  <variable name="Y(2391,52)" index="253391" value="1"/>
  <variable name="Y(2436,52)" index="258161" value="1"/>
  <variable name="Y(2492,12)" index="264057" value="1"/>
  <variable name="Y(2496,53)" index="264522" value="1"/>
  <variable name="Y(2508,12)" index="265753" value="1"/>
  <variable name="Y(2546,51)" index="269820" value="1"/>
  <variable name="Y(2639,39)" index="279666" value="1"/>
  <variable name="Y(2663,11)" index="282182" value="1"/>
  <variable name="X(1,2,1406)" index="293541" value="1"/>
  <variable name="X(1,7,1528)" index="296419" value="1"/>
  <variable name="X(1,54,53)" index="297700" value="1"/>
  <variable name="X(2,1,1528)" index="301931" value="1"/>
  <variable name="X(2,11,2663)" index="305822" value="1"/>
  <variable name="X(2,45,1812)" index="307727" value="1"/>
  <variable name="X(2,50,601)" index="309272" value="1"/>
  <variable name="X(2,53,2391)" index="313818" value="1"/>
  <variable name="X(2,55,1406)" index="315589" value="1"/>
  <variable name="X(3,4,212)" index="317151" value="1"/>
  <variable name="X(3,7,163)" index="319858" value="1"/>
  <variable name="X(3,56,315)" index="322766" value="1"/>
  <variable name="X(4,3,163)" index="325370" value="1"/>
  <variable name="X(4,57,212)" index="328175" value="1"/>
  <variable name="X(5,6,2004)" index="332723" value="1"/>
  <variable name="X(5,7,1406)" index="334881" value="1"/>
  <variable name="X(5,8,1568)" index="337799" value="1"/>
  <variable name="X(5,9,382)" index="339369" value="1"/>
  <variable name="X(5,38,1528)" index="343271" value="1"/>
  <variable name="X(5,39,217)" index="344716" value="1"/>
  <variable name="X(5,58,2033)" index="349288" value="1"/>
  <variable name="X(6,5,1406)" index="351417" value="1"/>
  <variable name="X(6,8,2088)" index="354855" value="1"/>
  <variable name="X(6,9,1465)" index="356988" value="1"/>
  <variable name="X(6,10,373)" index="358652" value="1"/>
  <variable name="X(6,28,2004)" index="363039" value="1"/>
  <variable name="X(6,29,496)" index="364287" value="1"/>
  <variable name="X(6,35,1419)" index="367966" value="1"/>
  <variable name="X(6,59,1306)" index="370609" value="1"/>
  <variable name="X(7,1,1406)" index="373465" value="1"/>
  <variable name="X(7,3,212)" index="375027" value="1"/>
  <variable name="X(7,5,1528)" index="379099" value="1"/>
  <variable name="X(7,8,163)" index="380490" value="1"/>
  <variable name="X(7,60,371)" index="383454" value="1"/>
  <variable name="X(8,5,382)" index="386221" value="1"/>
  <variable name="X(8,6,373)" index="388968" value="1"/>
  <variable name="X(8,7,371)" index="391722" value="1"/>
  <variable name="X(8,61,163)" index="394270" value="1"/>
  <variable name="X(9,5,1568)" index="398431" value="1"/>
  <variable name="X(9,6,1306)" index="400925" value="1"/>
  <variable name="X(9,19,382)" index="402757" value="1"/>
  <variable name="X(9,26,1690)" index="406821" value="1"/>
  <variable name="X(9,31,914)" index="408801" value="1"/>
  <variable name="X(9,35,456)" index="411099" value="1"/>
  <variable name="X(9,62,1465)" index="414864" value="1"/>
  <variable name="X(10,6,496)" index="416651" value="1"/>
  <variable name="X(10,39,499)" index="419410" value="1"/>
  <variable name="X(10,63,373)" index="422040" value="1"/>
  <variable name="X(11,2,601)" index="425024" value="1"/>
  <variable name="X(11,12,655)" index="427834" value="1"/>
  <variable name="X(11,13,1885)" index="431820" value="1"/>
  <variable name="X(11,64,2663)" index="435354" value="1"/>
  <variable name="X(12,11,1885)" index="437332" value="1"/>
  <variable name="X(12,47,655)" index="438858" value="1"/>
  <variable name="X(12,49,2492)" index="443451" value="1"/>
  <variable name="X(12,65,2508)" index="446223" value="1"/>
  <variable name="X(13,11,655)" index="447126" value="1"/>
  <variable name="X(13,49,2284)" index="451511" value="1"/>
  <variable name="X(13,50,2546)" index="454529" value="1"/>
  <variable name="X(13,66,1885)" index="456624" value="1"/>
  <variable name="X(14,23,697)" index="458192" value="1"/>
  <variable name="X(14,67,846)" index="461097" value="1"/>
  <variable name="X(15,16,743)" index="463750" value="1"/>
  <variable name="X(15,35,746)" index="466509" value="1"/>
  <variable name="X(15,68,1367)" index="469886" value="1"/>
  <variable name="X(16,15,1367)" index="472642" value="1"/>
  <variable name="X(16,17,588)" index="474619" value="1"/>
  <variable name="X(16,33,1749)" index="478536" value="1"/>
  <variable name="X(16,34,820)" index="480363" value="1"/>
  <variable name="X(16,35,846)" index="483145" value="1"/>
  <variable name="X(16,69,2096)" index="487151" value="1"/>
  <variable name="X(17,16,846)" index="488657" value="1"/>
  <variable name="X(17,18,850)" index="491417" value="1"/>
  <variable name="X(17,70,953)" index="494276" value="1"/>
  <variable name="X(18,17,953)" index="497032" value="1"/>
  <variable name="X(18,19,914)" index="499749" value="1"/>
  <variable name="X(18,35,918)" index="502509" value="1"/>
  <variable name="X(18,71,1734)" index="506081" value="1"/>
  <variable name="X(19,9,914)" index="508017" value="1"/>
  <variable name="X(19,18,953)" index="510812" value="1"/>
  <variable name="X(19,35,969)" index="513584" value="1"/>
  <variable name="X(19,72,746)" index="516117" value="1"/>
  <variable name="X(20,21,1010)" index="519137" value="1"/>
  <variable name="X(20,43,1076)" index="521959" value="1"/>
  <variable name="X(20,73,1528)" index="525167" value="1"/>
  <variable name="X(21,20,1076)" index="527471" value="1"/>
  <variable name="X(21,22,697)" index="529848" value="1"/>
  <variable name="X(21,23,1010)" index="532917" value="1"/>
  <variable name="X(21,74,1113)" index="535776" value="1"/>
  <variable name="X(22,21,1113)" index="538532" value="1"/>
  <variable name="X(22,43,1132)" index="541307" value="1"/>
  <variable name="X(22,75,697)" index="543628" value="1"/>
  <variable name="X(23,14,846)" index="546533" value="1"/>
  <variable name="X(23,21,697)" index="549140" value="1"/>
  <variable name="X(23,42,1179)" index="552378" value="1"/>
  <variable name="X(23,76,1010)" index="554965" value="1"/>
  <variable name="X(24,37,1237)" index="557948" value="1"/>
  <variable name="X(24,38,1911)" index="561378" value="1"/>
  <variable name="X(24,77,699)" index="562922" value="1"/>
  <variable name="X(25,32,499)" index="565478" value="1"/>
  <variable name="X(25,36,2279)" index="570014" value="1"/>
  <variable name="X(25,47,253)" index="570744" value="1"/>
  <variable name="X(25,78,1533)" index="574780" value="1"/>
  <variable name="X(26,9,1306)" index="577309" value="1"/>
  <variable name="X(26,29,1327)" index="580086" value="1"/>
  <variable name="X(26,79,1430)" index="582945" value="1"/>
  <variable name="X(27,33,1367)" index="585638" value="1"/>
  <variable name="X(27,80,1535)" index="588562" value="1"/>
  <variable name="X(28,6,1419)" index="591202" value="1"/>
  <variable name="X(28,29,1430)" index="593969" value="1"/>
  <variable name="X(28,31,1434)" index="596729" value="1"/>
  <variable name="X(28,81,2004)" index="600055" value="1"/>
  <variable name="X(29,6,1465)" index="602272" value="1"/>
  <variable name="X(29,26,1430)" index="604993" value="1"/>
  <variable name="X(29,28,1327)" index="607646" value="1"/>
  <variable name="X(29,31,1486)" index="610561" value="1"/>
  <variable name="X(29,82,496)" index="612327" value="1"/>
  <variable name="X(30,50,1533)" index="616120" value="1"/>
  <variable name="X(30,83,601)" index="617944" value="1"/>
  <variable name="X(31,9,1568)" index="621667" value="1"/>
  <variable name="X(31,28,1588)" index="624443" value="1"/>
  <variable name="X(31,29,1589)" index="627200" value="1"/>
  <variable name="X(31,84,914)" index="629281" value="1"/>
  <variable name="X(32,25,2279)" index="633402" value="1"/>
  <variable name="X(32,47,1658)" index="635537" value="1"/>
  <variable name="X(32,48,1659)" index="638294" value="1"/>
  <variable name="X(32,85,655)" index="640046" value="1"/>
  <variable name="X(33,16,1367)" index="643514" value="1"/>
  <variable name="X(33,27,1535)" index="646438" value="1"/>
  <variable name="X(33,35,1690)" index="649349" value="1"/>
  <variable name="X(33,86,1749)" index="652164" value="1"/>
  <variable name="X(34,16,2096)" index="655267" value="1"/>
  <variable name="X(34,35,1734)" index="657661" value="1"/>
  <variable name="X(34,40,820)" index="659503" value="1"/>
  <variable name="X(34,87,969)" index="662408" value="1"/>
  <variable name="X(35,6,2088)" index="666283" value="1"/>
  <variable name="X(35,9,1690)" index="668641" value="1"/>
  <variable name="X(35,15,1419)" index="671126" value="1"/>
  <variable name="X(35,16,588)" index="673051" value="1"/>
  <variable name="X(35,18,1734)" index="676953" value="1"/>
  <variable name="X(35,19,746)" index="678721" value="1"/>
  <variable name="X(35,33,1535)" index="682266" value="1"/>
  <variable name="X(35,34,969)" index="684456" value="1"/>
  <variable name="X(35,38,699)" index="686942" value="1"/>
  <variable name="X(35,40,456)" index="689455" value="1"/>
  <variable name="X(35,42,846)" index="692601" value="1"/>
  <variable name="X(35,88,918)" index="695429" value="1"/>
  <variable name="X(36,25,499)" index="697766" value="1"/>
  <variable name="X(36,37,1076)" index="701099" value="1"/>
  <variable name="X(36,38,2639)" index="705418" value="1"/>
  <variable name="X(36,42,1237)" index="706772" value="1"/>
  <variable name="X(36,43,2279)" index="710570" value="1"/>
  <variable name="X(36,89,1179)" index="712226" value="1"/>
  <variable name="X(37,24,1911)" index="715714" value="1"/>
  <variable name="X(37,36,1237)" index="717796" value="1"/>
  <variable name="X(37,90,1076)" index="720391" value="1"/>
  <variable name="X(38,5,2033)" index="724104" value="1"/>
  <variable name="X(38,24,699)" index="725526" value="1"/>
  <variable name="X(38,35,1535)" index="729118" value="1"/>
  <variable name="X(38,36,499)" index="730838" value="1"/>
  <variable name="X(38,39,2639)" index="735734" value="1"/>
  <variable name="X(38,40,1911)" index="737762" value="1"/>
  <variable name="X(38,43,1528)" index="740135" value="1"/>
  <variable name="X(38,91,1025)" index="742388" value="1"/>
  <variable name="X(39,5,2004)" index="746123" value="1"/>
  <variable name="X(39,10,217)" index="747092" value="1"/>
  <variable name="X(39,38,499)" index="750130" value="1"/>
  <variable name="X(39,92,2639)" index="755026" value="1"/>
  <variable name="X(40,34,2096)" index="757239" value="1"/>
  <variable name="X(40,35,2088)" index="759987" value="1"/>
  <variable name="X(40,38,2033)" index="762688" value="1"/>
  <variable name="X(40,41,820)" index="764231" value="1"/>
  <variable name="X(40,93,1911)" index="768078" value="1"/>
  <variable name="X(41,40,2096)" index="771019" value="1"/>
  <variable name="X(41,42,2102)" index="773781" value="1"/>
  <variable name="X(41,94,1132)" index="775567" value="1"/>
  <variable name="X(42,23,846)" index="778037" value="1"/>
  <variable name="X(42,35,588)" index="780535" value="1"/>
  <variable name="X(42,36,1179)" index="783882" value="1"/>
  <variable name="X(42,41,1132)" index="786591" value="1"/>
  <variable name="X(42,43,2102)" index="790317" value="1"/>
  <variable name="X(42,95,1237)" index="792208" value="1"/>
  <variable name="X(43,20,1528)" index="795255" value="1"/>
  <variable name="X(43,22,2102)" index="798585" value="1"/>
  <variable name="X(43,36,1076)" index="800315" value="1"/>
  <variable name="X(43,38,1025)" index="803020" value="1"/>
  <variable name="X(43,42,1132)" index="805883" value="1"/>
  <variable name="X(43,96,2279)" index="809786" value="1"/>
  <variable name="X(44,52,2279)" index="812542" value="1"/>
  <variable name="X(44,53,2284)" index="815303" value="1"/>
  <variable name="X(44,97,979)" index="816754" value="1"/>
  <variable name="X(45,2,2391)" index="820922" value="1"/>
  <variable name="X(45,46,1533)" index="822820" value="1"/>
  <variable name="X(45,50,1869)" index="825912" value="1"/>
  <variable name="X(45,98,1812)" index="828611" value="1"/>
  <variable name="X(46,45,2391)" index="831946" value="1"/>
  <variable name="X(46,47,1533)" index="833844" value="1"/>
  <variable name="X(46,99,253)" index="835320" value="1"/>
  <variable name="X(47,12,2492)" index="840315" value="1"/>
  <variable name="X(47,25,1533)" index="842112" value="1"/>
  <variable name="X(47,32,655)" index="843990" value="1"/>
  <variable name="X(47,46,253)" index="846344" value="1"/>
  <variable name="X(47,48,2436)" index="851283" value="1"/>
  <variable name="X(47,100,1658)" index="853261" value="1"/>
  <variable name="X(48,32,2279)" index="856638" value="1"/>
  <variable name="X(48,47,2492)" index="859607" value="1"/>
  <variable name="X(48,51,2436)" index="862307" value="1"/>
  <variable name="X(48,101,1659)" index="864286" value="1"/>
  <variable name="X(49,12,2508)" index="867891" value="1"/>
  <variable name="X(49,13,2546)" index="870685" value="1"/>
  <variable name="X(49,102,2284)" index="873179" value="1"/>
  <variable name="X(50,2,1528)" index="875179" value="1"/>
  <variable name="X(50,13,2284)" index="878691" value="1"/>
  <variable name="X(50,30,601)" index="879764" value="1"/>
  <variable name="X(50,45,1533)" index="883452" value="1"/>
  <variable name="X(50,51,2546)" index="887221" value="1"/>
  <variable name="X(50,53,2496)" index="889927" value="1"/>
  <variable name="X(50,103,1869)" index="892056" value="1"/>
  <variable name="X(51,48,2279)" index="895222" value="1"/>
  <variable name="X(51,50,2496)" index="898195" value="1"/>
  <variable name="X(51,52,2436)" index="900891" value="1"/>
  <variable name="X(51,104,2546)" index="903757" value="1"/>
  <variable name="X(52,44,2436)" index="906403" value="1"/>
  <variable name="X(52,51,2279)" index="909002" value="1"/>
  <variable name="X(52,53,2663)" index="912142" value="1"/>
  <variable name="X(52,105,2391)" index="914626" value="1"/>
  <variable name="X(53,2,2663)" index="917654" value="1"/>
  <variable name="X(53,44,979)" index="918726" value="1"/>
  <variable name="X(53,50,2284)" index="922787" value="1"/>
  <variable name="X(53,52,2391)" index="925650" value="1"/>
  <variable name="X(53,106,2496)" index="928511" value="1"/>
 </variables>
</CPLEXSolution>
